data/solutions/planning/wellformed/moderate/sequential/wellformed_moderate_instance31_cplex.sol
Elapsed time: 0.06
Nodes explored: -
Nodes left: -
Relative gap: -
Upper bound: 4349.0
Lower bound: -
C[0]=290.0
C[1]=290.0
C[2]=290.0
C[3]=289.0
y[0]=1
y[1]=2
y[2]=0
y[3]=3
y[4]=2
y[5]=1
y[6]=1
y[7]=1
y[8]=0
y[9]=3
y[10]=2
y[11]=2
y[12]=0
y[13]=3
y[14]=3
y[15]=0
y[16]=2
y[17]=3
y[18]=0
y[19]=3
y[20]=0
y[21]=0
y[22]=1
y[23]=1
y[24]=0
y[25]=3
y[26]=3
y[27]=1
y[28]=0
y[29]=0
